BAYES
451
2 2 2 2 2 2 2 2 2 2 2 2 2 2 2 2 2 2 2 2 2 2 2 2 2 2 2 2 2 2 2 2 2 2 3 3 3 3 3 3 3 3 3 3 3 3 2 3 2 3 2 3 2 2 2 2 2 2 2 2 2 2 2 2 2 2 2 2 2 2 2 2 2 2 2 2 2 2 2 2 2 2 2 2 2 2 2 2 2 2 2 2 2 2 2 2 2 2 2 2 2 2 2 2 2 2 2 2 2 2 2 2 2 2 2 2 2 2 2 2 2 2 2 2 2 2 2 2 2 2 2 2 2 2 2 2 2 2 2 2 2 2 2 2 2 2 2 2 2 2 2 2 2 2 2 2 2 2 2 2 2 2 2 2 2 2 2 2 2 2 2 2 2 2 2 2 2 2 2 3 3 3 3 3 3 3 3 3 3 3 3 2 3 2 3 2 3 2 2 2 2 2 2 2 2 2 2 2 2 2 2 2 2 2 2 2 2 2 2 2 2 2 2 2 2 2 2 2 2 2 2 2 2 2 2 2 2 2 2 2 2 2 2 2 2 2 2 2 2 2 2 2 2 2 2 2 2 2 2 2 2 2 2 2 2 2 2 2 2 2 2 2 2 2 2 2 2 2 2 2 2 2 2 2 2 2 2 2 2 2 2 2 2 2 2 2 2 2 2 2 2 2 2 2 2 2 2 2 2 2 2 2 2 2 2 2 2 2 2 2 2 2 2 2 3 3 3 3 3 3 3 3 3 3 3 3 2 3 2 3 2 3 2 2 2 2 2 2 2 2 2 2 2 2 2 2 2 2 2 2 2 2 2 2 2 2 2 2 2 2 2 2 2 2 2 2 2 2 2 2 2 2 2 2 2 2 2 2 2 2 2 2 2 2 2 2 2 2 2 2 2 2 2 2 2 2 2 2 2 2 2 2 2 2 2 2 2 2 2 2 2 2 2 2 2 2 2 2 2 2 2 2 2 2 2 2 2 2 2 2 2 2 2 2 2 2 2 2 2 2 2 
451
1	0
1	1
1	2
1	3
1	4
1	5
1	6
1	7
1	8
1	9
1	10
1	11
1	12
1	13
1	14
1	15
1	16
1	17
1	18
1	19
1	20
1	21
1	22
1	23
1	24
1	25
1	26
1	27
1	28
1	29
1	30
1	31
1	32
1	33
5	9	30	31	18	34
5	10	30	32	19	35
5	11	30	33	20	36
4	1	27	32	37
5	13	30	31	22	38
4	0	27	33	39
4	2	28	31	40
5	15	30	32	24	41
4	3	28	33	42
4	4	29	31	43
5	17	30	33	26	44
4	5	29	32	45
3	6	27	46
5	12	30	31	21	47
3	7	28	48
5	14	30	32	23	49
3	8	29	50
5	16	30	33	25	51
3	36	35	52
3	43	45	53
3	39	38	54
3	42	40	55
3	43	45	56
3	47	52	57
3	49	51	58
3	41	38	59
3	34	44	60
3	46	53	61
3	50	48	62
3	40	37	63
3	39	42	64
3	39	49	65
3	42	40	66
3	43	45	67
3	46	54	68
3	37	47	69
3	48	55	70
3	41	49	71
3	50	56	72
3	44	51	73
3	39	37	74
3	34	38	75
3	42	40	76
3	35	41	77
3	43	45	78
3	36	44	79
3	58	57	80
3	60	59	81
3	62	61	82
3	64	63	83
3	38	47	84
3	43	40	85
3	46	65	86
3	37	51	87
3	49	37	88
3	45	41	89
3	48	66	90
3	44	47	91
3	44	51	92
3	39	42	93
3	50	67	94
3	41	38	95
2	34	96
3	69	68	97
2	35	98
3	71	70	99
2	36	100
3	73	72	101
2	47	102
2	37	103
2	38	104
2	39	105
2	49	106
2	40	107
2	41	108
2	42	109
2	51	110
2	43	111
2	44	112
2	45	113
3	46	74	114
3	47	75	115
3	48	76	116
3	49	77	117
3	50	78	118
3	51	79	119
3	81	80	120
3	83	82	121
3	85	84	122
3	87	86	123
3	89	88	124
3	91	90	125
3	93	92	126
3	95	94	127
3	1	0	128
3	128	2	129
3	129	3	130
3	130	4	131
3	131	5	132
3	132	6	133
3	133	7	134
3	134	8	135
3	135	9	136
3	136	10	137
3	137	11	138
3	138	12	139
3	139	13	140
3	140	14	141
3	141	15	142
3	142	16	143
3	17	143	144
4	97	96	18	145
4	99	98	19	146
4	101	100	20	147
4	103	102	21	148
4	105	104	22	149
4	107	106	23	150
4	109	108	24	151
4	111	110	25	152
4	113	112	26	153
4	115	114	27	154
4	117	116	28	155
4	119	118	29	156
4	121	120	30	157
4	123	122	31	158
4	125	124	32	159
4	127	126	33	160
1	161
1	162
1	163
1	164
1	165
1	166
1	167
1	168
1	169
1	170
1	171
1	172
1	173
1	174
1	175
1	176
1	177
1	178
5	170	157	158	145	179
5	171	157	159	146	180
5	172	157	160	147	181
4	162	154	159	182
5	174	157	158	149	183
4	161	154	160	184
4	163	155	158	185
5	176	157	159	151	186
4	164	155	160	187
4	165	156	158	188
5	178	157	160	153	189
4	166	156	159	190
3	167	154	191
5	173	157	158	148	192
3	168	155	193
5	175	157	159	150	194
3	169	156	195
5	177	157	160	152	196
3	181	180	197
3	188	190	198
3	184	183	199
3	187	185	200
3	188	190	201
3	192	197	202
3	194	196	203
3	186	183	204
3	179	189	205
3	191	198	206
3	195	193	207
3	185	182	208
3	184	187	209
3	184	194	210
3	187	185	211
3	188	190	212
3	191	199	213
3	182	192	214
3	193	200	215
3	186	194	216
3	195	201	217
3	189	196	218
3	184	182	219
3	179	183	220
3	187	185	221
3	180	186	222
3	188	190	223
3	181	189	224
3	203	202	225
3	205	204	226
3	207	206	227
3	209	208	228
3	183	192	229
3	188	185	230
3	191	210	231
3	182	196	232
3	194	182	233
3	190	186	234
3	193	211	235
3	189	192	236
3	189	196	237
3	184	187	238
3	195	212	239
3	186	183	240
2	179	241
3	214	213	242
2	180	243
3	216	215	244
2	181	245
3	218	217	246
2	192	247
2	182	248
2	183	249
2	184	250
2	194	251
2	185	252
2	186	253
2	187	254
2	196	255
2	188	256
2	189	257
2	190	258
3	191	219	259
3	192	220	260
3	193	221	261
3	194	222	262
3	195	223	263
3	196	224	264
3	226	225	265
3	228	227	266
3	230	229	267
3	232	231	268
3	234	233	269
3	236	235	270
3	238	237	271
3	240	239	272
3	162	161	273
3	273	163	274
3	274	164	275
3	275	165	276
3	276	166	277
3	277	167	278
3	278	168	279
3	279	169	280
3	280	170	281
3	281	171	282
3	282	172	283
3	283	173	284
3	284	174	285
3	285	175	286
3	286	176	287
3	287	177	288
3	178	288	289
4	242	241	145	290
4	244	243	146	291
4	246	245	147	292
4	248	247	148	293
4	250	249	149	294
4	252	251	150	295
4	254	253	151	296
4	256	255	152	297
4	258	257	153	298
4	260	259	154	299
4	262	261	155	300
4	264	263	156	301
4	266	265	157	302
4	268	267	158	303
4	270	269	159	304
4	272	271	160	305
1	306
1	307
1	308
1	309
1	310
1	311
1	312
1	313
1	314
1	315
1	316
1	317
1	318
1	319
1	320
1	321
1	322
1	323
5	315	302	303	290	324
5	316	302	304	291	325
5	317	302	305	292	326
4	307	299	304	327
5	319	302	303	294	328
4	306	299	305	329
4	308	300	303	330
5	321	302	304	296	331
4	309	300	305	332
4	310	301	303	333
5	323	302	305	298	334
4	311	301	304	335
3	312	299	336
5	318	302	303	293	337
3	313	300	338
5	320	302	304	295	339
3	314	301	340
5	322	302	305	297	341
3	326	325	342
3	333	335	343
3	329	328	344
3	332	330	345
3	333	335	346
3	337	342	347
3	339	341	348
3	331	328	349
3	324	334	350
3	336	343	351
3	340	338	352
3	330	327	353
3	329	332	354
3	329	339	355
3	332	330	356
3	333	335	357
3	336	344	358
3	327	337	359
3	338	345	360
3	331	339	361
3	340	346	362
3	334	341	363
3	329	327	364
3	324	328	365
3	332	330	366
3	325	331	367
3	333	335	368
3	326	334	369
3	348	347	370
3	350	349	371
3	352	351	372
3	354	353	373
3	328	337	374
3	333	330	375
3	336	355	376
3	327	341	377
3	339	327	378
3	335	331	379
3	338	356	380
3	334	337	381
3	334	341	382
3	329	332	383
3	340	357	384
3	331	328	385
2	324	386
3	359	358	387
2	325	388
3	361	360	389
2	326	390
3	363	362	391
2	337	392
2	327	393
2	328	394
2	329	395
2	339	396
2	330	397
2	331	398
2	332	399
2	341	400
2	333	401
2	334	402
2	335	403
3	336	364	404
3	337	365	405
3	338	366	406
3	339	367	407
3	340	368	408
3	341	369	409
3	371	370	410
3	373	372	411
3	375	374	412
3	377	376	413
3	379	378	414
3	381	380	415
3	383	382	416
3	385	384	417
3	307	306	418
3	418	308	419
3	419	309	420
3	420	310	421
3	421	311	422
3	422	312	423
3	423	313	424
3	424	314	425
3	425	315	426
3	426	316	427
3	427	317	428
3	428	318	429
3	429	319	430
3	430	320	431
3	431	321	432
3	432	322	433
3	323	433	434
4	387	386	290	435
4	389	388	291	436
4	391	390	292	437
4	393	392	293	438
4	395	394	294	439
4	397	396	295	440
4	399	398	296	441
4	401	400	297	442
4	403	402	298	443
4	405	404	299	444
4	407	406	300	445
4	409	408	301	446
4	411	410	302	447
4	413	412	303	448
4	415	414	304	449
4	417	416	305	450

2
 1.0 1.0

2
 1.0 1.0

2
 1.0 1.0

2
 1.0 1.0

2
 1.0 1.0

2
 1.0 1.0

2
 1.0 1.0

2
 1.0 1.0

2
 1.0 1.0

2
 1.0 1.0

2
 1.0 1.0

2
 1.0 1.0

2
 1.0 1.0

2
 1.0 1.0

2
 1.0 1.0

2
 1.0 1.0

2
 1.0 1.0

2
 1.0 1.0

2
 1.0 0.0

2
 1.0 0.0

2
 0.0 1.0

2
 0.0 1.0

2
 1.0 0.0

2
 1.0 0.0

2
 0.0 1.0

2
 1.0 0.0

2
 1.0 0.0

2
 1.0 0.0

2
 1.0 0.0

2
 1.0 0.0

2
 0.0 1.0

2
 0.0 1.0

2
 1.0 0.0

2
 1.0 0.0

48
 1.0 0.0 0.0
 1.0 0.0 0.0
 1.0 0.0 0.0
 1.0 0.0 0.0
 1.0 0.0 0.0
 1.0 0.0 0.0
 1.0 0.0 0.0
 1.0 0.0 0.0
 1.0 0.0 0.0
 1.0 0.0 0.0
 1.0 0.0 0.0
 1.0 0.0 0.0
 1.0 0.0 0.0
 1.0 0.0 0.0
 1.0 0.0 0.0
 0.0 0.75 0.25

48
 1.0 0.0 0.0
 1.0 0.0 0.0
 1.0 0.0 0.0
 1.0 0.0 0.0
 1.0 0.0 0.0
 1.0 0.0 0.0
 1.0 0.0 0.0
 1.0 0.0 0.0
 1.0 0.0 0.0
 1.0 0.0 0.0
 1.0 0.0 0.0
 1.0 0.0 0.0
 1.0 0.0 0.0
 1.0 0.0 0.0
 1.0 0.0 0.0
 0.0 0.75 0.25

48
 1.0 0.0 0.0
 1.0 0.0 0.0
 1.0 0.0 0.0
 1.0 0.0 0.0
 1.0 0.0 0.0
 1.0 0.0 0.0
 1.0 0.0 0.0
 1.0 0.0 0.0
 1.0 0.0 0.0
 1.0 0.0 0.0
 1.0 0.0 0.0
 1.0 0.0 0.0
 1.0 0.0 0.0
 1.0 0.0 0.0
 1.0 0.0 0.0
 0.0 0.75 0.25

24
 1.0 0.0 0.0
 1.0 0.0 0.0
 1.0 0.0 0.0
 1.0 0.0 0.0
 1.0 0.0 0.0
 1.0 0.0 0.0
 1.0 0.0 0.0
 0.0 0.75 0.25

48
 1.0 0.0 0.0
 1.0 0.0 0.0
 1.0 0.0 0.0
 1.0 0.0 0.0
 1.0 0.0 0.0
 1.0 0.0 0.0
 1.0 0.0 0.0
 1.0 0.0 0.0
 1.0 0.0 0.0
 1.0 0.0 0.0
 1.0 0.0 0.0
 1.0 0.0 0.0
 1.0 0.0 0.0
 1.0 0.0 0.0
 1.0 0.0 0.0
 0.0 0.75 0.25

24
 1.0 0.0 0.0
 1.0 0.0 0.0
 1.0 0.0 0.0
 1.0 0.0 0.0
 1.0 0.0 0.0
 1.0 0.0 0.0
 1.0 0.0 0.0
 0.0 0.75 0.25

24
 1.0 0.0 0.0
 1.0 0.0 0.0
 1.0 0.0 0.0
 1.0 0.0 0.0
 1.0 0.0 0.0
 1.0 0.0 0.0
 1.0 0.0 0.0
 0.0 0.75 0.25

48
 1.0 0.0 0.0
 1.0 0.0 0.0
 1.0 0.0 0.0
 1.0 0.0 0.0
 1.0 0.0 0.0
 1.0 0.0 0.0
 1.0 0.0 0.0
 1.0 0.0 0.0
 1.0 0.0 0.0
 1.0 0.0 0.0
 1.0 0.0 0.0
 1.0 0.0 0.0
 1.0 0.0 0.0
 1.0 0.0 0.0
 1.0 0.0 0.0
 0.0 0.75 0.25

24
 1.0 0.0 0.0
 1.0 0.0 0.0
 1.0 0.0 0.0
 1.0 0.0 0.0
 1.0 0.0 0.0
 1.0 0.0 0.0
 1.0 0.0 0.0
 0.0 0.75 0.25

24
 1.0 0.0 0.0
 1.0 0.0 0.0
 1.0 0.0 0.0
 1.0 0.0 0.0
 1.0 0.0 0.0
 1.0 0.0 0.0
 1.0 0.0 0.0
 0.0 0.75 0.25

48
 1.0 0.0 0.0
 1.0 0.0 0.0
 1.0 0.0 0.0
 1.0 0.0 0.0
 1.0 0.0 0.0
 1.0 0.0 0.0
 1.0 0.0 0.0
 1.0 0.0 0.0
 1.0 0.0 0.0
 1.0 0.0 0.0
 1.0 0.0 0.0
 1.0 0.0 0.0
 1.0 0.0 0.0
 1.0 0.0 0.0
 1.0 0.0 0.0
 0.0 0.75 0.25

24
 1.0 0.0 0.0
 1.0 0.0 0.0
 1.0 0.0 0.0
 1.0 0.0 0.0
 1.0 0.0 0.0
 1.0 0.0 0.0
 1.0 0.0 0.0
 0.0 0.75 0.25

8
 1.0 0.0
 1.0 0.0
 1.0 0.0
 0.0 1.0

48
 1.0 0.0 0.0
 1.0 0.0 0.0
 1.0 0.0 0.0
 1.0 0.0 0.0
 1.0 0.0 0.0
 1.0 0.0 0.0
 1.0 0.0 0.0
 1.0 0.0 0.0
 1.0 0.0 0.0
 1.0 0.0 0.0
 1.0 0.0 0.0
 1.0 0.0 0.0
 1.0 0.0 0.0
 1.0 0.0 0.0
 1.0 0.0 0.0
 0.0 0.75 0.25

8
 1.0 0.0
 1.0 0.0
 1.0 0.0
 0.0 1.0

48
 1.0 0.0 0.0
 1.0 0.0 0.0
 1.0 0.0 0.0
 1.0 0.0 0.0
 1.0 0.0 0.0
 1.0 0.0 0.0
 1.0 0.0 0.0
 1.0 0.0 0.0
 1.0 0.0 0.0
 1.0 0.0 0.0
 1.0 0.0 0.0
 1.0 0.0 0.0
 1.0 0.0 0.0
 1.0 0.0 0.0
 1.0 0.0 0.0
 0.0 0.75 0.25

8
 1.0 0.0
 1.0 0.0
 1.0 0.0
 0.0 1.0

48
 1.0 0.0 0.0
 1.0 0.0 0.0
 1.0 0.0 0.0
 1.0 0.0 0.0
 1.0 0.0 0.0
 1.0 0.0 0.0
 1.0 0.0 0.0
 1.0 0.0 0.0
 1.0 0.0 0.0
 1.0 0.0 0.0
 1.0 0.0 0.0
 1.0 0.0 0.0
 1.0 0.0 0.0
 1.0 0.0 0.0
 1.0 0.0 0.0
 0.0 0.75 0.25

18
 1.0 0.0
 0.0 1.0
 1.0 0.0
 0.0 1.0
 0.0 0.0
 0.0 1.0
 1.0 0.0
 0.0 1.0
 1.0 0.0

18
 1.0 0.0
 0.0 1.0
 0.0 1.0
 0.0 1.0
 0.0 0.0
 0.0 0.0
 0.0 1.0
 0.0 0.0
 0.0 0.0

18
 1.0 0.0
 1.0 0.0
 0.0 1.0
 1.0 0.0
 1.0 0.0
 0.0 1.0
 0.0 1.0
 0.0 1.0
 0.0 0.0

18
 1.0 0.0
 1.0 0.0
 0.0 1.0
 1.0 0.0
 1.0 0.0
 0.0 1.0
 0.0 1.0
 0.0 1.0
 0.0 0.0

18
 1.0 0.0
 1.0 0.0
 0.0 1.0
 1.0 0.0
 1.0 0.0
 0.0 1.0
 0.0 1.0
 0.0 1.0
 0.0 0.0

12
 1.0 0.0
 0.0 1.0
 0.0 1.0
 0.0 0.0
 1.0 0.0
 0.0 1.0

18
 1.0 0.0
 0.0 1.0
 1.0 0.0
 0.0 1.0
 0.0 0.0
 0.0 1.0
 1.0 0.0
 0.0 1.0
 1.0 0.0

18
 1.0 0.0
 0.0 1.0
 1.0 0.0
 0.0 1.0
 0.0 0.0
 0.0 1.0
 1.0 0.0
 0.0 1.0
 1.0 0.0

18
 1.0 0.0
 0.0 1.0
 1.0 0.0
 0.0 1.0
 0.0 0.0
 0.0 1.0
 1.0 0.0
 0.0 1.0
 1.0 0.0

8
 1.0 0.0
 0.0 1.0
 0.0 1.0
 0.0 0.0

8
 1.0 0.0
 0.0 1.0
 0.0 1.0
 0.0 0.0

18
 1.0 0.0
 0.0 1.0
 0.0 1.0
 0.0 1.0
 0.0 0.0
 0.0 0.0
 0.0 1.0
 0.0 0.0
 0.0 0.0

18
 1.0 0.0
 0.0 1.0
 0.0 1.0
 0.0 1.0
 0.0 0.0
 0.0 0.0
 0.0 1.0
 0.0 0.0
 0.0 0.0

18
 1.0 0.0
 0.0 1.0
 0.0 1.0
 0.0 1.0
 0.0 0.0
 0.0 0.0
 0.0 1.0
 0.0 0.0
 0.0 0.0

18
 1.0 0.0
 0.0 1.0
 0.0 1.0
 0.0 1.0
 0.0 0.0
 0.0 0.0
 0.0 1.0
 0.0 0.0
 0.0 0.0

18
 1.0 0.0
 0.0 1.0
 0.0 1.0
 0.0 1.0
 0.0 0.0
 0.0 0.0
 0.0 1.0
 0.0 0.0
 0.0 0.0

8
 1.0 0.0
 0.0 1.0
 0.0 1.0
 0.0 0.0

18
 1.0 0.0
 1.0 0.0
 0.0 1.0
 1.0 0.0
 1.0 0.0
 0.0 1.0
 0.0 1.0
 0.0 1.0
 0.0 0.0

8
 1.0 0.0
 0.0 1.0
 0.0 1.0
 0.0 0.0

18
 1.0 0.0
 1.0 0.0
 0.0 1.0
 1.0 0.0
 1.0 0.0
 0.0 1.0
 0.0 1.0
 0.0 1.0
 0.0 0.0

8
 1.0 0.0
 0.0 1.0
 0.0 1.0
 0.0 0.0

18
 1.0 0.0
 1.0 0.0
 0.0 1.0
 1.0 0.0
 1.0 0.0
 0.0 1.0
 0.0 1.0
 0.0 1.0
 0.0 0.0

18
 1.0 0.0
 0.0 1.0
 0.0 1.0
 0.0 1.0
 0.0 0.0
 0.0 0.0
 0.0 1.0
 0.0 0.0
 0.0 0.0

18
 1.0 0.0
 0.0 1.0
 1.0 0.0
 0.0 1.0
 0.0 0.0
 0.0 1.0
 1.0 0.0
 0.0 1.0
 1.0 0.0

18
 1.0 0.0
 0.0 1.0
 0.0 1.0
 0.0 1.0
 0.0 0.0
 0.0 0.0
 0.0 1.0
 0.0 0.0
 0.0 0.0

18
 1.0 0.0
 0.0 1.0
 1.0 0.0
 0.0 1.0
 0.0 0.0
 0.0 1.0
 1.0 0.0
 0.0 1.0
 1.0 0.0

18
 1.0 0.0
 0.0 1.0
 0.0 1.0
 0.0 1.0
 0.0 0.0
 0.0 0.0
 0.0 1.0
 0.0 0.0
 0.0 0.0

18
 1.0 0.0
 0.0 1.0
 1.0 0.0
 0.0 1.0
 0.0 0.0
 0.0 1.0
 1.0 0.0
 0.0 1.0
 1.0 0.0

8
 1.0 0.0
 0.0 1.0
 0.0 1.0
 0.0 0.0

8
 1.0 0.0
 0.0 1.0
 0.0 1.0
 0.0 0.0

8
 1.0 0.0
 0.0 1.0
 0.0 1.0
 0.0 0.0

8
 1.0 0.0
 0.0 1.0
 0.0 1.0
 0.0 0.0

18
 1.0 0.0
 0.0 1.0
 1.0 0.0
 0.0 1.0
 0.0 0.0
 0.0 1.0
 1.0 0.0
 0.0 1.0
 1.0 0.0

18
 1.0 0.0
 0.0 1.0
 1.0 0.0
 0.0 1.0
 0.0 0.0
 0.0 1.0
 1.0 0.0
 0.0 1.0
 1.0 0.0

8
 1.0 0.0
 0.0 1.0
 0.0 1.0
 0.0 0.0

18
 1.0 0.0
 0.0 1.0
 0.0 1.0
 0.0 1.0
 0.0 0.0
 0.0 0.0
 0.0 1.0
 0.0 0.0
 0.0 0.0

18
 1.0 0.0
 0.0 1.0
 1.0 0.0
 0.0 1.0
 0.0 0.0
 0.0 1.0
 1.0 0.0
 0.0 1.0
 1.0 0.0

18
 1.0 0.0
 0.0 1.0
 1.0 0.0
 0.0 1.0
 0.0 0.0
 0.0 1.0
 1.0 0.0
 0.0 1.0
 1.0 0.0

8
 1.0 0.0
 0.0 1.0
 0.0 1.0
 0.0 0.0

18
 1.0 0.0
 0.0 1.0
 0.0 1.0
 0.0 1.0
 0.0 0.0
 0.0 0.0
 0.0 1.0
 0.0 0.0
 0.0 0.0

18
 1.0 0.0
 0.0 1.0
 1.0 0.0
 0.0 1.0
 0.0 0.0
 0.0 1.0
 1.0 0.0
 0.0 1.0
 1.0 0.0

18
 1.0 0.0
 0.0 1.0
 1.0 0.0
 0.0 1.0
 0.0 0.0
 0.0 1.0
 1.0 0.0
 0.0 1.0
 1.0 0.0

8
 1.0 0.0
 0.0 1.0
 0.0 1.0
 0.0 0.0

18
 1.0 0.0
 0.0 1.0
 0.0 1.0
 0.0 1.0
 0.0 0.0
 0.0 0.0
 0.0 1.0
 0.0 0.0
 0.0 0.0

6
 1.0 0.0
 0.0 1.0
 1.0 0.0

8
 1.0 0.0
 0.0 1.0
 0.0 1.0
 0.0 0.0

6
 1.0 0.0
 0.0 1.0
 1.0 0.0

8
 1.0 0.0
 0.0 1.0
 0.0 1.0
 0.0 0.0

6
 1.0 0.0
 0.0 1.0
 1.0 0.0

8
 1.0 0.0
 0.0 1.0
 0.0 1.0
 0.0 0.0

6
 1.0 0.0
 0.0 1.0
 0.0 1.0

6
 1.0 0.0
 0.0 1.0
 1.0 0.0

6
 1.0 0.0
 0.0 1.0
 0.0 1.0

6
 1.0 0.0
 0.0 1.0
 1.0 0.0

6
 1.0 0.0
 0.0 1.0
 0.0 1.0

6
 1.0 0.0
 0.0 1.0
 1.0 0.0

6
 1.0 0.0
 0.0 1.0
 0.0 1.0

6
 1.0 0.0
 0.0 1.0
 1.0 0.0

6
 1.0 0.0
 0.0 1.0
 0.0 1.0

6
 1.0 0.0
 0.0 1.0
 1.0 0.0

6
 1.0 0.0
 0.0 1.0
 0.0 1.0

6
 1.0 0.0
 0.0 1.0
 1.0 0.0

8
 1.0 0.0
 0.0 1.0
 0.0 1.0
 0.0 0.0

12
 1.0 0.0
 0.0 1.0
 0.0 1.0
 0.0 0.0
 1.0 0.0
 0.0 1.0

8
 1.0 0.0
 0.0 1.0
 0.0 1.0
 0.0 0.0

12
 1.0 0.0
 0.0 1.0
 0.0 1.0
 0.0 0.0
 1.0 0.0
 0.0 1.0

8
 1.0 0.0
 0.0 1.0
 0.0 1.0
 0.0 0.0

12
 1.0 0.0
 0.0 1.0
 0.0 1.0
 0.0 0.0
 1.0 0.0
 0.0 1.0

8
 1.0 0.0
 0.0 1.0
 0.0 1.0
 0.0 0.0

8
 1.0 0.0
 0.0 1.0
 0.0 1.0
 0.0 0.0

8
 1.0 0.0
 0.0 1.0
 0.0 1.0
 0.0 0.0

8
 1.0 0.0
 0.0 1.0
 0.0 1.0
 0.0 0.0

8
 1.0 0.0
 0.0 1.0
 0.0 1.0
 0.0 0.0

8
 1.0 0.0
 0.0 1.0
 0.0 1.0
 0.0 0.0

8
 1.0 0.0
 0.0 1.0
 0.0 1.0
 0.0 0.0

8
 1.0 0.0
 0.0 1.0
 0.0 1.0
 0.0 0.0

8
 1.0 0.0
 0.0 1.0
 0.0 1.0
 0.0 0.0

8
 1.0 0.0
 0.0 1.0
 0.0 1.0
 0.0 0.0

8
 1.0 0.0
 0.0 1.0
 0.0 1.0
 0.0 0.0

8
 1.0 0.0
 0.0 1.0
 0.0 1.0
 0.0 0.0

8
 1.0 0.0
 0.0 1.0
 0.0 1.0
 0.0 0.0

8
 1.0 0.0
 0.0 1.0
 0.0 1.0
 0.0 0.0

8
 1.0 0.0
 0.0 1.0
 0.0 1.0
 0.0 0.0

8
 1.0 0.0
 0.0 1.0
 0.0 1.0
 0.0 0.0

8
 1.0 0.0
 0.0 1.0
 0.0 1.0
 0.0 0.0

8
 1.0 0.0
 0.0 1.0
 0.0 1.0
 0.0 0.0

8
 1.0 0.0
 0.0 1.0
 0.0 1.0
 0.0 0.0

8
 1.0 0.0
 0.0 1.0
 0.0 1.0
 0.0 0.0

8
 1.0 0.0
 0.0 1.0
 0.0 1.0
 0.0 0.0

8
 1.0 0.0
 0.0 1.0
 0.0 1.0
 0.0 0.0

8
 1.0 0.0
 0.0 1.0
 0.0 1.0
 0.0 0.0

8
 1.0 0.0
 0.0 1.0
 0.0 1.0
 0.0 0.0

8
 0.0 0.0
 0.0 1.0
 0.0 1.0
 0.0 0.0

16
 1.0 0.0
 0.0 1.0
 1.0 0.0
 1.0 0.0
 0.0 1.0
 0.0 1.0
 0.0 0.0
 0.0 0.0

16
 1.0 0.0
 0.0 1.0
 1.0 0.0
 1.0 0.0
 0.0 1.0
 0.0 1.0
 0.0 0.0
 0.0 0.0

16
 1.0 0.0
 0.0 1.0
 1.0 0.0
 1.0 0.0
 0.0 1.0
 0.0 1.0
 0.0 0.0
 0.0 0.0

16
 1.0 0.0
 0.0 1.0
 1.0 0.0
 1.0 0.0
 0.0 1.0
 0.0 1.0
 0.0 0.0
 0.0 0.0

16
 1.0 0.0
 0.0 1.0
 1.0 0.0
 1.0 0.0
 0.0 1.0
 0.0 1.0
 0.0 0.0
 0.0 0.0

16
 1.0 0.0
 0.0 1.0
 1.0 0.0
 1.0 0.0
 0.0 1.0
 0.0 1.0
 0.0 0.0
 0.0 0.0

16
 1.0 0.0
 0.0 1.0
 1.0 0.0
 1.0 0.0
 0.0 1.0
 0.0 1.0
 0.0 0.0
 0.0 0.0

16
 1.0 0.0
 0.0 1.0
 1.0 0.0
 1.0 0.0
 0.0 1.0
 0.0 1.0
 0.0 0.0
 0.0 0.0

16
 1.0 0.0
 0.0 1.0
 1.0 0.0
 1.0 0.0
 0.0 1.0
 0.0 1.0
 0.0 0.0
 0.0 0.0

16
 1.0 0.0
 0.0 1.0
 1.0 0.0
 1.0 0.0
 0.0 1.0
 0.0 1.0
 0.0 0.0
 0.0 0.0

16
 1.0 0.0
 0.0 1.0
 1.0 0.0
 1.0 0.0
 0.0 1.0
 0.0 1.0
 0.0 0.0
 0.0 0.0

16
 1.0 0.0
 0.0 1.0
 1.0 0.0
 1.0 0.0
 0.0 1.0
 0.0 1.0
 0.0 0.0
 0.0 0.0

16
 1.0 0.0
 0.0 1.0
 1.0 0.0
 1.0 0.0
 0.0 1.0
 0.0 1.0
 0.0 0.0
 0.0 0.0

16
 1.0 0.0
 0.0 1.0
 1.0 0.0
 1.0 0.0
 0.0 1.0
 0.0 1.0
 0.0 0.0
 0.0 0.0

16
 1.0 0.0
 0.0 1.0
 1.0 0.0
 1.0 0.0
 0.0 1.0
 0.0 1.0
 0.0 0.0
 0.0 0.0

16
 1.0 0.0
 0.0 1.0
 1.0 0.0
 1.0 0.0
 0.0 1.0
 0.0 1.0
 0.0 0.0
 0.0 0.0

2
 1.0 1.0

2
 1.0 1.0

2
 1.0 1.0

2
 1.0 1.0

2
 1.0 1.0

2
 1.0 1.0

2
 1.0 1.0

2
 1.0 1.0

2
 1.0 1.0

2
 1.0 1.0

2
 1.0 1.0

2
 1.0 1.0

2
 1.0 1.0

2
 1.0 1.0

2
 1.0 1.0

2
 1.0 1.0

2
 1.0 1.0

2
 1.0 1.0

48
 1.0 0.0 0.0
 1.0 0.0 0.0
 1.0 0.0 0.0
 1.0 0.0 0.0
 1.0 0.0 0.0
 1.0 0.0 0.0
 1.0 0.0 0.0
 1.0 0.0 0.0
 1.0 0.0 0.0
 1.0 0.0 0.0
 1.0 0.0 0.0
 1.0 0.0 0.0
 1.0 0.0 0.0
 1.0 0.0 0.0
 1.0 0.0 0.0
 0.0 0.75 0.25

48
 1.0 0.0 0.0
 1.0 0.0 0.0
 1.0 0.0 0.0
 1.0 0.0 0.0
 1.0 0.0 0.0
 1.0 0.0 0.0
 1.0 0.0 0.0
 1.0 0.0 0.0
 1.0 0.0 0.0
 1.0 0.0 0.0
 1.0 0.0 0.0
 1.0 0.0 0.0
 1.0 0.0 0.0
 1.0 0.0 0.0
 1.0 0.0 0.0
 0.0 0.75 0.25

48
 1.0 0.0 0.0
 1.0 0.0 0.0
 1.0 0.0 0.0
 1.0 0.0 0.0
 1.0 0.0 0.0
 1.0 0.0 0.0
 1.0 0.0 0.0
 1.0 0.0 0.0
 1.0 0.0 0.0
 1.0 0.0 0.0
 1.0 0.0 0.0
 1.0 0.0 0.0
 1.0 0.0 0.0
 1.0 0.0 0.0
 1.0 0.0 0.0
 0.0 0.75 0.25

24
 1.0 0.0 0.0
 1.0 0.0 0.0
 1.0 0.0 0.0
 1.0 0.0 0.0
 1.0 0.0 0.0
 1.0 0.0 0.0
 1.0 0.0 0.0
 0.0 0.75 0.25

48
 1.0 0.0 0.0
 1.0 0.0 0.0
 1.0 0.0 0.0
 1.0 0.0 0.0
 1.0 0.0 0.0
 1.0 0.0 0.0
 1.0 0.0 0.0
 1.0 0.0 0.0
 1.0 0.0 0.0
 1.0 0.0 0.0
 1.0 0.0 0.0
 1.0 0.0 0.0
 1.0 0.0 0.0
 1.0 0.0 0.0
 1.0 0.0 0.0
 0.0 0.75 0.25

24
 1.0 0.0 0.0
 1.0 0.0 0.0
 1.0 0.0 0.0
 1.0 0.0 0.0
 1.0 0.0 0.0
 1.0 0.0 0.0
 1.0 0.0 0.0
 0.0 0.75 0.25

24
 1.0 0.0 0.0
 1.0 0.0 0.0
 1.0 0.0 0.0
 1.0 0.0 0.0
 1.0 0.0 0.0
 1.0 0.0 0.0
 1.0 0.0 0.0
 0.0 0.75 0.25

48
 1.0 0.0 0.0
 1.0 0.0 0.0
 1.0 0.0 0.0
 1.0 0.0 0.0
 1.0 0.0 0.0
 1.0 0.0 0.0
 1.0 0.0 0.0
 1.0 0.0 0.0
 1.0 0.0 0.0
 1.0 0.0 0.0
 1.0 0.0 0.0
 1.0 0.0 0.0
 1.0 0.0 0.0
 1.0 0.0 0.0
 1.0 0.0 0.0
 0.0 0.75 0.25

24
 1.0 0.0 0.0
 1.0 0.0 0.0
 1.0 0.0 0.0
 1.0 0.0 0.0
 1.0 0.0 0.0
 1.0 0.0 0.0
 1.0 0.0 0.0
 0.0 0.75 0.25

24
 1.0 0.0 0.0
 1.0 0.0 0.0
 1.0 0.0 0.0
 1.0 0.0 0.0
 1.0 0.0 0.0
 1.0 0.0 0.0
 1.0 0.0 0.0
 0.0 0.75 0.25

48
 1.0 0.0 0.0
 1.0 0.0 0.0
 1.0 0.0 0.0
 1.0 0.0 0.0
 1.0 0.0 0.0
 1.0 0.0 0.0
 1.0 0.0 0.0
 1.0 0.0 0.0
 1.0 0.0 0.0
 1.0 0.0 0.0
 1.0 0.0 0.0
 1.0 0.0 0.0
 1.0 0.0 0.0
 1.0 0.0 0.0
 1.0 0.0 0.0
 0.0 0.75 0.25

24
 1.0 0.0 0.0
 1.0 0.0 0.0
 1.0 0.0 0.0
 1.0 0.0 0.0
 1.0 0.0 0.0
 1.0 0.0 0.0
 1.0 0.0 0.0
 0.0 0.75 0.25

8
 1.0 0.0
 1.0 0.0
 1.0 0.0
 0.0 1.0

48
 1.0 0.0 0.0
 1.0 0.0 0.0
 1.0 0.0 0.0
 1.0 0.0 0.0
 1.0 0.0 0.0
 1.0 0.0 0.0
 1.0 0.0 0.0
 1.0 0.0 0.0
 1.0 0.0 0.0
 1.0 0.0 0.0
 1.0 0.0 0.0
 1.0 0.0 0.0
 1.0 0.0 0.0
 1.0 0.0 0.0
 1.0 0.0 0.0
 0.0 0.75 0.25

8
 1.0 0.0
 1.0 0.0
 1.0 0.0
 0.0 1.0

48
 1.0 0.0 0.0
 1.0 0.0 0.0
 1.0 0.0 0.0
 1.0 0.0 0.0
 1.0 0.0 0.0
 1.0 0.0 0.0
 1.0 0.0 0.0
 1.0 0.0 0.0
 1.0 0.0 0.0
 1.0 0.0 0.0
 1.0 0.0 0.0
 1.0 0.0 0.0
 1.0 0.0 0.0
 1.0 0.0 0.0
 1.0 0.0 0.0
 0.0 0.75 0.25

8
 1.0 0.0
 1.0 0.0
 1.0 0.0
 0.0 1.0

48
 1.0 0.0 0.0
 1.0 0.0 0.0
 1.0 0.0 0.0
 1.0 0.0 0.0
 1.0 0.0 0.0
 1.0 0.0 0.0
 1.0 0.0 0.0
 1.0 0.0 0.0
 1.0 0.0 0.0
 1.0 0.0 0.0
 1.0 0.0 0.0
 1.0 0.0 0.0
 1.0 0.0 0.0
 1.0 0.0 0.0
 1.0 0.0 0.0
 0.0 0.75 0.25

18
 1.0 0.0
 0.0 1.0
 1.0 0.0
 0.0 1.0
 0.0 0.0
 0.0 1.0
 1.0 0.0
 0.0 1.0
 1.0 0.0

18
 1.0 0.0
 0.0 1.0
 0.0 1.0
 0.0 1.0
 0.0 0.0
 0.0 0.0
 0.0 1.0
 0.0 0.0
 0.0 0.0

18
 1.0 0.0
 1.0 0.0
 0.0 1.0
 1.0 0.0
 1.0 0.0
 0.0 1.0
 0.0 1.0
 0.0 1.0
 0.0 0.0

18
 1.0 0.0
 1.0 0.0
 0.0 1.0
 1.0 0.0
 1.0 0.0
 0.0 1.0
 0.0 1.0
 0.0 1.0
 0.0 0.0

18
 1.0 0.0
 1.0 0.0
 0.0 1.0
 1.0 0.0
 1.0 0.0
 0.0 1.0
 0.0 1.0
 0.0 1.0
 0.0 0.0

12
 1.0 0.0
 0.0 1.0
 0.0 1.0
 0.0 0.0
 1.0 0.0
 0.0 1.0

18
 1.0 0.0
 0.0 1.0
 1.0 0.0
 0.0 1.0
 0.0 0.0
 0.0 1.0
 1.0 0.0
 0.0 1.0
 1.0 0.0

18
 1.0 0.0
 0.0 1.0
 1.0 0.0
 0.0 1.0
 0.0 0.0
 0.0 1.0
 1.0 0.0
 0.0 1.0
 1.0 0.0

18
 1.0 0.0
 0.0 1.0
 1.0 0.0
 0.0 1.0
 0.0 0.0
 0.0 1.0
 1.0 0.0
 0.0 1.0
 1.0 0.0

8
 1.0 0.0
 0.0 1.0
 0.0 1.0
 0.0 0.0

8
 1.0 0.0
 0.0 1.0
 0.0 1.0
 0.0 0.0

18
 1.0 0.0
 0.0 1.0
 0.0 1.0
 0.0 1.0
 0.0 0.0
 0.0 0.0
 0.0 1.0
 0.0 0.0
 0.0 0.0

18
 1.0 0.0
 0.0 1.0
 0.0 1.0
 0.0 1.0
 0.0 0.0
 0.0 0.0
 0.0 1.0
 0.0 0.0
 0.0 0.0

18
 1.0 0.0
 0.0 1.0
 0.0 1.0
 0.0 1.0
 0.0 0.0
 0.0 0.0
 0.0 1.0
 0.0 0.0
 0.0 0.0

18
 1.0 0.0
 0.0 1.0
 0.0 1.0
 0.0 1.0
 0.0 0.0
 0.0 0.0
 0.0 1.0
 0.0 0.0
 0.0 0.0

18
 1.0 0.0
 0.0 1.0
 0.0 1.0
 0.0 1.0
 0.0 0.0
 0.0 0.0
 0.0 1.0
 0.0 0.0
 0.0 0.0

8
 1.0 0.0
 0.0 1.0
 0.0 1.0
 0.0 0.0

18
 1.0 0.0
 1.0 0.0
 0.0 1.0
 1.0 0.0
 1.0 0.0
 0.0 1.0
 0.0 1.0
 0.0 1.0
 0.0 0.0

8
 1.0 0.0
 0.0 1.0
 0.0 1.0
 0.0 0.0

18
 1.0 0.0
 1.0 0.0
 0.0 1.0
 1.0 0.0
 1.0 0.0
 0.0 1.0
 0.0 1.0
 0.0 1.0
 0.0 0.0

8
 1.0 0.0
 0.0 1.0
 0.0 1.0
 0.0 0.0

18
 1.0 0.0
 1.0 0.0
 0.0 1.0
 1.0 0.0
 1.0 0.0
 0.0 1.0
 0.0 1.0
 0.0 1.0
 0.0 0.0

18
 1.0 0.0
 0.0 1.0
 0.0 1.0
 0.0 1.0
 0.0 0.0
 0.0 0.0
 0.0 1.0
 0.0 0.0
 0.0 0.0

18
 1.0 0.0
 0.0 1.0
 1.0 0.0
 0.0 1.0
 0.0 0.0
 0.0 1.0
 1.0 0.0
 0.0 1.0
 1.0 0.0

18
 1.0 0.0
 0.0 1.0
 0.0 1.0
 0.0 1.0
 0.0 0.0
 0.0 0.0
 0.0 1.0
 0.0 0.0
 0.0 0.0

18
 1.0 0.0
 0.0 1.0
 1.0 0.0
 0.0 1.0
 0.0 0.0
 0.0 1.0
 1.0 0.0
 0.0 1.0
 1.0 0.0

18
 1.0 0.0
 0.0 1.0
 0.0 1.0
 0.0 1.0
 0.0 0.0
 0.0 0.0
 0.0 1.0
 0.0 0.0
 0.0 0.0

18
 1.0 0.0
 0.0 1.0
 1.0 0.0
 0.0 1.0
 0.0 0.0
 0.0 1.0
 1.0 0.0
 0.0 1.0
 1.0 0.0

8
 1.0 0.0
 0.0 1.0
 0.0 1.0
 0.0 0.0

8
 1.0 0.0
 0.0 1.0
 0.0 1.0
 0.0 0.0

8
 1.0 0.0
 0.0 1.0
 0.0 1.0
 0.0 0.0

8
 1.0 0.0
 0.0 1.0
 0.0 1.0
 0.0 0.0

18
 1.0 0.0
 0.0 1.0
 1.0 0.0
 0.0 1.0
 0.0 0.0
 0.0 1.0
 1.0 0.0
 0.0 1.0
 1.0 0.0

18
 1.0 0.0
 0.0 1.0
 1.0 0.0
 0.0 1.0
 0.0 0.0
 0.0 1.0
 1.0 0.0
 0.0 1.0
 1.0 0.0

8
 1.0 0.0
 0.0 1.0
 0.0 1.0
 0.0 0.0

18
 1.0 0.0
 0.0 1.0
 0.0 1.0
 0.0 1.0
 0.0 0.0
 0.0 0.0
 0.0 1.0
 0.0 0.0
 0.0 0.0

18
 1.0 0.0
 0.0 1.0
 1.0 0.0
 0.0 1.0
 0.0 0.0
 0.0 1.0
 1.0 0.0
 0.0 1.0
 1.0 0.0

18
 1.0 0.0
 0.0 1.0
 1.0 0.0
 0.0 1.0
 0.0 0.0
 0.0 1.0
 1.0 0.0
 0.0 1.0
 1.0 0.0

8
 1.0 0.0
 0.0 1.0
 0.0 1.0
 0.0 0.0

18
 1.0 0.0
 0.0 1.0
 0.0 1.0
 0.0 1.0
 0.0 0.0
 0.0 0.0
 0.0 1.0
 0.0 0.0
 0.0 0.0

18
 1.0 0.0
 0.0 1.0
 1.0 0.0
 0.0 1.0
 0.0 0.0
 0.0 1.0
 1.0 0.0
 0.0 1.0
 1.0 0.0

18
 1.0 0.0
 0.0 1.0
 1.0 0.0
 0.0 1.0
 0.0 0.0
 0.0 1.0
 1.0 0.0
 0.0 1.0
 1.0 0.0

8
 1.0 0.0
 0.0 1.0
 0.0 1.0
 0.0 0.0

18
 1.0 0.0
 0.0 1.0
 0.0 1.0
 0.0 1.0
 0.0 0.0
 0.0 0.0
 0.0 1.0
 0.0 0.0
 0.0 0.0

6
 1.0 0.0
 0.0 1.0
 1.0 0.0

8
 1.0 0.0
 0.0 1.0
 0.0 1.0
 0.0 0.0

6
 1.0 0.0
 0.0 1.0
 1.0 0.0

8
 1.0 0.0
 0.0 1.0
 0.0 1.0
 0.0 0.0

6
 1.0 0.0
 0.0 1.0
 1.0 0.0

8
 1.0 0.0
 0.0 1.0
 0.0 1.0
 0.0 0.0

6
 1.0 0.0
 0.0 1.0
 0.0 1.0

6
 1.0 0.0
 0.0 1.0
 1.0 0.0

6
 1.0 0.0
 0.0 1.0
 0.0 1.0

6
 1.0 0.0
 0.0 1.0
 1.0 0.0

6
 1.0 0.0
 0.0 1.0
 0.0 1.0

6
 1.0 0.0
 0.0 1.0
 1.0 0.0

6
 1.0 0.0
 0.0 1.0
 0.0 1.0

6
 1.0 0.0
 0.0 1.0
 1.0 0.0

6
 1.0 0.0
 0.0 1.0
 0.0 1.0

6
 1.0 0.0
 0.0 1.0
 1.0 0.0

6
 1.0 0.0
 0.0 1.0
 0.0 1.0

6
 1.0 0.0
 0.0 1.0
 1.0 0.0

8
 1.0 0.0
 0.0 1.0
 0.0 1.0
 0.0 0.0

12
 1.0 0.0
 0.0 1.0
 0.0 1.0
 0.0 0.0
 1.0 0.0
 0.0 1.0

8
 1.0 0.0
 0.0 1.0
 0.0 1.0
 0.0 0.0

12
 1.0 0.0
 0.0 1.0
 0.0 1.0
 0.0 0.0
 1.0 0.0
 0.0 1.0

8
 1.0 0.0
 0.0 1.0
 0.0 1.0
 0.0 0.0

12
 1.0 0.0
 0.0 1.0
 0.0 1.0
 0.0 0.0
 1.0 0.0
 0.0 1.0

8
 1.0 0.0
 0.0 1.0
 0.0 1.0
 0.0 0.0

8
 1.0 0.0
 0.0 1.0
 0.0 1.0
 0.0 0.0

8
 1.0 0.0
 0.0 1.0
 0.0 1.0
 0.0 0.0

8
 1.0 0.0
 0.0 1.0
 0.0 1.0
 0.0 0.0

8
 1.0 0.0
 0.0 1.0
 0.0 1.0
 0.0 0.0

8
 1.0 0.0
 0.0 1.0
 0.0 1.0
 0.0 0.0

8
 1.0 0.0
 0.0 1.0
 0.0 1.0
 0.0 0.0

8
 1.0 0.0
 0.0 1.0
 0.0 1.0
 0.0 0.0

8
 1.0 0.0
 0.0 1.0
 0.0 1.0
 0.0 0.0

8
 1.0 0.0
 0.0 1.0
 0.0 1.0
 0.0 0.0

8
 1.0 0.0
 0.0 1.0
 0.0 1.0
 0.0 0.0

8
 1.0 0.0
 0.0 1.0
 0.0 1.0
 0.0 0.0

8
 1.0 0.0
 0.0 1.0
 0.0 1.0
 0.0 0.0

8
 1.0 0.0
 0.0 1.0
 0.0 1.0
 0.0 0.0

8
 1.0 0.0
 0.0 1.0
 0.0 1.0
 0.0 0.0

8
 1.0 0.0
 0.0 1.0
 0.0 1.0
 0.0 0.0

8
 1.0 0.0
 0.0 1.0
 0.0 1.0
 0.0 0.0

8
 1.0 0.0
 0.0 1.0
 0.0 1.0
 0.0 0.0

8
 1.0 0.0
 0.0 1.0
 0.0 1.0
 0.0 0.0

8
 1.0 0.0
 0.0 1.0
 0.0 1.0
 0.0 0.0

8
 1.0 0.0
 0.0 1.0
 0.0 1.0
 0.0 0.0

8
 1.0 0.0
 0.0 1.0
 0.0 1.0
 0.0 0.0

8
 1.0 0.0
 0.0 1.0
 0.0 1.0
 0.0 0.0

8
 1.0 0.0
 0.0 1.0
 0.0 1.0
 0.0 0.0

8
 0.0 0.0
 0.0 1.0
 0.0 1.0
 0.0 0.0

16
 1.0 0.0
 0.0 1.0
 1.0 0.0
 1.0 0.0
 0.0 1.0
 0.0 1.0
 0.0 0.0
 0.0 0.0

16
 1.0 0.0
 0.0 1.0
 1.0 0.0
 1.0 0.0
 0.0 1.0
 0.0 1.0
 0.0 0.0
 0.0 0.0

16
 1.0 0.0
 0.0 1.0
 1.0 0.0
 1.0 0.0
 0.0 1.0
 0.0 1.0
 0.0 0.0
 0.0 0.0

16
 1.0 0.0
 0.0 1.0
 1.0 0.0
 1.0 0.0
 0.0 1.0
 0.0 1.0
 0.0 0.0
 0.0 0.0

16
 1.0 0.0
 0.0 1.0
 1.0 0.0
 1.0 0.0
 0.0 1.0
 0.0 1.0
 0.0 0.0
 0.0 0.0

16
 1.0 0.0
 0.0 1.0
 1.0 0.0
 1.0 0.0
 0.0 1.0
 0.0 1.0
 0.0 0.0
 0.0 0.0

16
 1.0 0.0
 0.0 1.0
 1.0 0.0
 1.0 0.0
 0.0 1.0
 0.0 1.0
 0.0 0.0
 0.0 0.0

16
 1.0 0.0
 0.0 1.0
 1.0 0.0
 1.0 0.0
 0.0 1.0
 0.0 1.0
 0.0 0.0
 0.0 0.0

16
 1.0 0.0
 0.0 1.0
 1.0 0.0
 1.0 0.0
 0.0 1.0
 0.0 1.0
 0.0 0.0
 0.0 0.0

16
 1.0 0.0
 0.0 1.0
 1.0 0.0
 1.0 0.0
 0.0 1.0
 0.0 1.0
 0.0 0.0
 0.0 0.0

16
 1.0 0.0
 0.0 1.0
 1.0 0.0
 1.0 0.0
 0.0 1.0
 0.0 1.0
 0.0 0.0
 0.0 0.0

16
 1.0 0.0
 0.0 1.0
 1.0 0.0
 1.0 0.0
 0.0 1.0
 0.0 1.0
 0.0 0.0
 0.0 0.0

16
 1.0 0.0
 0.0 1.0
 1.0 0.0
 1.0 0.0
 0.0 1.0
 0.0 1.0
 0.0 0.0
 0.0 0.0

16
 1.0 0.0
 0.0 1.0
 1.0 0.0
 1.0 0.0
 0.0 1.0
 0.0 1.0
 0.0 0.0
 0.0 0.0

16
 1.0 0.0
 0.0 1.0
 1.0 0.0
 1.0 0.0
 0.0 1.0
 0.0 1.0
 0.0 0.0
 0.0 0.0

16
 1.0 0.0
 0.0 1.0
 1.0 0.0
 1.0 0.0
 0.0 1.0
 0.0 1.0
 0.0 0.0
 0.0 0.0

2
 1.0 1.0

2
 1.0 1.0

2
 1.0 1.0

2
 1.0 1.0

2
 1.0 1.0

2
 1.0 1.0

2
 1.0 1.0

2
 1.0 1.0

2
 1.0 1.0

2
 1.0 1.0

2
 1.0 1.0

2
 1.0 1.0

2
 1.0 1.0

2
 1.0 1.0

2
 1.0 1.0

2
 1.0 1.0

2
 1.0 1.0

2
 1.0 1.0

48
 1.0 0.0 0.0
 1.0 0.0 0.0
 1.0 0.0 0.0
 1.0 0.0 0.0
 1.0 0.0 0.0
 1.0 0.0 0.0
 1.0 0.0 0.0
 1.0 0.0 0.0
 1.0 0.0 0.0
 1.0 0.0 0.0
 1.0 0.0 0.0
 1.0 0.0 0.0
 1.0 0.0 0.0
 1.0 0.0 0.0
 1.0 0.0 0.0
 0.0 0.75 0.25

48
 1.0 0.0 0.0
 1.0 0.0 0.0
 1.0 0.0 0.0
 1.0 0.0 0.0
 1.0 0.0 0.0
 1.0 0.0 0.0
 1.0 0.0 0.0
 1.0 0.0 0.0
 1.0 0.0 0.0
 1.0 0.0 0.0
 1.0 0.0 0.0
 1.0 0.0 0.0
 1.0 0.0 0.0
 1.0 0.0 0.0
 1.0 0.0 0.0
 0.0 0.75 0.25

48
 1.0 0.0 0.0
 1.0 0.0 0.0
 1.0 0.0 0.0
 1.0 0.0 0.0
 1.0 0.0 0.0
 1.0 0.0 0.0
 1.0 0.0 0.0
 1.0 0.0 0.0
 1.0 0.0 0.0
 1.0 0.0 0.0
 1.0 0.0 0.0
 1.0 0.0 0.0
 1.0 0.0 0.0
 1.0 0.0 0.0
 1.0 0.0 0.0
 0.0 0.75 0.25

24
 1.0 0.0 0.0
 1.0 0.0 0.0
 1.0 0.0 0.0
 1.0 0.0 0.0
 1.0 0.0 0.0
 1.0 0.0 0.0
 1.0 0.0 0.0
 0.0 0.75 0.25

48
 1.0 0.0 0.0
 1.0 0.0 0.0
 1.0 0.0 0.0
 1.0 0.0 0.0
 1.0 0.0 0.0
 1.0 0.0 0.0
 1.0 0.0 0.0
 1.0 0.0 0.0
 1.0 0.0 0.0
 1.0 0.0 0.0
 1.0 0.0 0.0
 1.0 0.0 0.0
 1.0 0.0 0.0
 1.0 0.0 0.0
 1.0 0.0 0.0
 0.0 0.75 0.25

24
 1.0 0.0 0.0
 1.0 0.0 0.0
 1.0 0.0 0.0
 1.0 0.0 0.0
 1.0 0.0 0.0
 1.0 0.0 0.0
 1.0 0.0 0.0
 0.0 0.75 0.25

24
 1.0 0.0 0.0
 1.0 0.0 0.0
 1.0 0.0 0.0
 1.0 0.0 0.0
 1.0 0.0 0.0
 1.0 0.0 0.0
 1.0 0.0 0.0
 0.0 0.75 0.25

48
 1.0 0.0 0.0
 1.0 0.0 0.0
 1.0 0.0 0.0
 1.0 0.0 0.0
 1.0 0.0 0.0
 1.0 0.0 0.0
 1.0 0.0 0.0
 1.0 0.0 0.0
 1.0 0.0 0.0
 1.0 0.0 0.0
 1.0 0.0 0.0
 1.0 0.0 0.0
 1.0 0.0 0.0
 1.0 0.0 0.0
 1.0 0.0 0.0
 0.0 0.75 0.25

24
 1.0 0.0 0.0
 1.0 0.0 0.0
 1.0 0.0 0.0
 1.0 0.0 0.0
 1.0 0.0 0.0
 1.0 0.0 0.0
 1.0 0.0 0.0
 0.0 0.75 0.25

24
 1.0 0.0 0.0
 1.0 0.0 0.0
 1.0 0.0 0.0
 1.0 0.0 0.0
 1.0 0.0 0.0
 1.0 0.0 0.0
 1.0 0.0 0.0
 0.0 0.75 0.25

48
 1.0 0.0 0.0
 1.0 0.0 0.0
 1.0 0.0 0.0
 1.0 0.0 0.0
 1.0 0.0 0.0
 1.0 0.0 0.0
 1.0 0.0 0.0
 1.0 0.0 0.0
 1.0 0.0 0.0
 1.0 0.0 0.0
 1.0 0.0 0.0
 1.0 0.0 0.0
 1.0 0.0 0.0
 1.0 0.0 0.0
 1.0 0.0 0.0
 0.0 0.75 0.25

24
 1.0 0.0 0.0
 1.0 0.0 0.0
 1.0 0.0 0.0
 1.0 0.0 0.0
 1.0 0.0 0.0
 1.0 0.0 0.0
 1.0 0.0 0.0
 0.0 0.75 0.25

8
 1.0 0.0
 1.0 0.0
 1.0 0.0
 0.0 1.0

48
 1.0 0.0 0.0
 1.0 0.0 0.0
 1.0 0.0 0.0
 1.0 0.0 0.0
 1.0 0.0 0.0
 1.0 0.0 0.0
 1.0 0.0 0.0
 1.0 0.0 0.0
 1.0 0.0 0.0
 1.0 0.0 0.0
 1.0 0.0 0.0
 1.0 0.0 0.0
 1.0 0.0 0.0
 1.0 0.0 0.0
 1.0 0.0 0.0
 0.0 0.75 0.25

8
 1.0 0.0
 1.0 0.0
 1.0 0.0
 0.0 1.0

48
 1.0 0.0 0.0
 1.0 0.0 0.0
 1.0 0.0 0.0
 1.0 0.0 0.0
 1.0 0.0 0.0
 1.0 0.0 0.0
 1.0 0.0 0.0
 1.0 0.0 0.0
 1.0 0.0 0.0
 1.0 0.0 0.0
 1.0 0.0 0.0
 1.0 0.0 0.0
 1.0 0.0 0.0
 1.0 0.0 0.0
 1.0 0.0 0.0
 0.0 0.75 0.25

8
 1.0 0.0
 1.0 0.0
 1.0 0.0
 0.0 1.0

48
 1.0 0.0 0.0
 1.0 0.0 0.0
 1.0 0.0 0.0
 1.0 0.0 0.0
 1.0 0.0 0.0
 1.0 0.0 0.0
 1.0 0.0 0.0
 1.0 0.0 0.0
 1.0 0.0 0.0
 1.0 0.0 0.0
 1.0 0.0 0.0
 1.0 0.0 0.0
 1.0 0.0 0.0
 1.0 0.0 0.0
 1.0 0.0 0.0
 0.0 0.75 0.25

18
 1.0 0.0
 0.0 1.0
 1.0 0.0
 0.0 1.0
 0.0 0.0
 0.0 1.0
 1.0 0.0
 0.0 1.0
 1.0 0.0

18
 1.0 0.0
 0.0 1.0
 0.0 1.0
 0.0 1.0
 0.0 0.0
 0.0 0.0
 0.0 1.0
 0.0 0.0
 0.0 0.0

18
 1.0 0.0
 1.0 0.0
 0.0 1.0
 1.0 0.0
 1.0 0.0
 0.0 1.0
 0.0 1.0
 0.0 1.0
 0.0 0.0

18
 1.0 0.0
 1.0 0.0
 0.0 1.0
 1.0 0.0
 1.0 0.0
 0.0 1.0
 0.0 1.0
 0.0 1.0
 0.0 0.0

18
 1.0 0.0
 1.0 0.0
 0.0 1.0
 1.0 0.0
 1.0 0.0
 0.0 1.0
 0.0 1.0
 0.0 1.0
 0.0 0.0

12
 1.0 0.0
 0.0 1.0
 0.0 1.0
 0.0 0.0
 1.0 0.0
 0.0 1.0

18
 1.0 0.0
 0.0 1.0
 1.0 0.0
 0.0 1.0
 0.0 0.0
 0.0 1.0
 1.0 0.0
 0.0 1.0
 1.0 0.0

18
 1.0 0.0
 0.0 1.0
 1.0 0.0
 0.0 1.0
 0.0 0.0
 0.0 1.0
 1.0 0.0
 0.0 1.0
 1.0 0.0

18
 1.0 0.0
 0.0 1.0
 1.0 0.0
 0.0 1.0
 0.0 0.0
 0.0 1.0
 1.0 0.0
 0.0 1.0
 1.0 0.0

8
 1.0 0.0
 0.0 1.0
 0.0 1.0
 0.0 0.0

8
 1.0 0.0
 0.0 1.0
 0.0 1.0
 0.0 0.0

18
 1.0 0.0
 0.0 1.0
 0.0 1.0
 0.0 1.0
 0.0 0.0
 0.0 0.0
 0.0 1.0
 0.0 0.0
 0.0 0.0

18
 1.0 0.0
 0.0 1.0
 0.0 1.0
 0.0 1.0
 0.0 0.0
 0.0 0.0
 0.0 1.0
 0.0 0.0
 0.0 0.0

18
 1.0 0.0
 0.0 1.0
 0.0 1.0
 0.0 1.0
 0.0 0.0
 0.0 0.0
 0.0 1.0
 0.0 0.0
 0.0 0.0

18
 1.0 0.0
 0.0 1.0
 0.0 1.0
 0.0 1.0
 0.0 0.0
 0.0 0.0
 0.0 1.0
 0.0 0.0
 0.0 0.0

18
 1.0 0.0
 0.0 1.0
 0.0 1.0
 0.0 1.0
 0.0 0.0
 0.0 0.0
 0.0 1.0
 0.0 0.0
 0.0 0.0

8
 1.0 0.0
 0.0 1.0
 0.0 1.0
 0.0 0.0

18
 1.0 0.0
 1.0 0.0
 0.0 1.0
 1.0 0.0
 1.0 0.0
 0.0 1.0
 0.0 1.0
 0.0 1.0
 0.0 0.0

8
 1.0 0.0
 0.0 1.0
 0.0 1.0
 0.0 0.0

18
 1.0 0.0
 1.0 0.0
 0.0 1.0
 1.0 0.0
 1.0 0.0
 0.0 1.0
 0.0 1.0
 0.0 1.0
 0.0 0.0

8
 1.0 0.0
 0.0 1.0
 0.0 1.0
 0.0 0.0

18
 1.0 0.0
 1.0 0.0
 0.0 1.0
 1.0 0.0
 1.0 0.0
 0.0 1.0
 0.0 1.0
 0.0 1.0
 0.0 0.0

18
 1.0 0.0
 0.0 1.0
 0.0 1.0
 0.0 1.0
 0.0 0.0
 0.0 0.0
 0.0 1.0
 0.0 0.0
 0.0 0.0

18
 1.0 0.0
 0.0 1.0
 1.0 0.0
 0.0 1.0
 0.0 0.0
 0.0 1.0
 1.0 0.0
 0.0 1.0
 1.0 0.0

18
 1.0 0.0
 0.0 1.0
 0.0 1.0
 0.0 1.0
 0.0 0.0
 0.0 0.0
 0.0 1.0
 0.0 0.0
 0.0 0.0

18
 1.0 0.0
 0.0 1.0
 1.0 0.0
 0.0 1.0
 0.0 0.0
 0.0 1.0
 1.0 0.0
 0.0 1.0
 1.0 0.0

18
 1.0 0.0
 0.0 1.0
 0.0 1.0
 0.0 1.0
 0.0 0.0
 0.0 0.0
 0.0 1.0
 0.0 0.0
 0.0 0.0

18
 1.0 0.0
 0.0 1.0
 1.0 0.0
 0.0 1.0
 0.0 0.0
 0.0 1.0
 1.0 0.0
 0.0 1.0
 1.0 0.0

8
 1.0 0.0
 0.0 1.0
 0.0 1.0
 0.0 0.0

8
 1.0 0.0
 0.0 1.0
 0.0 1.0
 0.0 0.0

8
 1.0 0.0
 0.0 1.0
 0.0 1.0
 0.0 0.0

8
 1.0 0.0
 0.0 1.0
 0.0 1.0
 0.0 0.0

18
 1.0 0.0
 0.0 1.0
 1.0 0.0
 0.0 1.0
 0.0 0.0
 0.0 1.0
 1.0 0.0
 0.0 1.0
 1.0 0.0

18
 1.0 0.0
 0.0 1.0
 1.0 0.0
 0.0 1.0
 0.0 0.0
 0.0 1.0
 1.0 0.0
 0.0 1.0
 1.0 0.0

8
 1.0 0.0
 0.0 1.0
 0.0 1.0
 0.0 0.0

18
 1.0 0.0
 0.0 1.0
 0.0 1.0
 0.0 1.0
 0.0 0.0
 0.0 0.0
 0.0 1.0
 0.0 0.0
 0.0 0.0

18
 1.0 0.0
 0.0 1.0
 1.0 0.0
 0.0 1.0
 0.0 0.0
 0.0 1.0
 1.0 0.0
 0.0 1.0
 1.0 0.0

18
 1.0 0.0
 0.0 1.0
 1.0 0.0
 0.0 1.0
 0.0 0.0
 0.0 1.0
 1.0 0.0
 0.0 1.0
 1.0 0.0

8
 1.0 0.0
 0.0 1.0
 0.0 1.0
 0.0 0.0

18
 1.0 0.0
 0.0 1.0
 0.0 1.0
 0.0 1.0
 0.0 0.0
 0.0 0.0
 0.0 1.0
 0.0 0.0
 0.0 0.0

18
 1.0 0.0
 0.0 1.0
 1.0 0.0
 0.0 1.0
 0.0 0.0
 0.0 1.0
 1.0 0.0
 0.0 1.0
 1.0 0.0

18
 1.0 0.0
 0.0 1.0
 1.0 0.0
 0.0 1.0
 0.0 0.0
 0.0 1.0
 1.0 0.0
 0.0 1.0
 1.0 0.0

8
 1.0 0.0
 0.0 1.0
 0.0 1.0
 0.0 0.0

18
 1.0 0.0
 0.0 1.0
 0.0 1.0
 0.0 1.0
 0.0 0.0
 0.0 0.0
 0.0 1.0
 0.0 0.0
 0.0 0.0

6
 1.0 0.0
 0.0 1.0
 1.0 0.0

8
 1.0 0.0
 0.0 1.0
 0.0 1.0
 0.0 0.0

6
 1.0 0.0
 0.0 1.0
 1.0 0.0

8
 1.0 0.0
 0.0 1.0
 0.0 1.0
 0.0 0.0

6
 1.0 0.0
 0.0 1.0
 1.0 0.0

8
 1.0 0.0
 0.0 1.0
 0.0 1.0
 0.0 0.0

6
 1.0 0.0
 0.0 1.0
 0.0 1.0

6
 1.0 0.0
 0.0 1.0
 1.0 0.0

6
 1.0 0.0
 0.0 1.0
 0.0 1.0

6
 1.0 0.0
 0.0 1.0
 1.0 0.0

6
 1.0 0.0
 0.0 1.0
 0.0 1.0

6
 1.0 0.0
 0.0 1.0
 1.0 0.0

6
 1.0 0.0
 0.0 1.0
 0.0 1.0

6
 1.0 0.0
 0.0 1.0
 1.0 0.0

6
 1.0 0.0
 0.0 1.0
 0.0 1.0

6
 1.0 0.0
 0.0 1.0
 1.0 0.0

6
 1.0 0.0
 0.0 1.0
 0.0 1.0

6
 1.0 0.0
 0.0 1.0
 1.0 0.0

8
 1.0 0.0
 0.0 1.0
 0.0 1.0
 0.0 0.0

12
 1.0 0.0
 0.0 1.0
 0.0 1.0
 0.0 0.0
 1.0 0.0
 0.0 1.0

8
 1.0 0.0
 0.0 1.0
 0.0 1.0
 0.0 0.0

12
 1.0 0.0
 0.0 1.0
 0.0 1.0
 0.0 0.0
 1.0 0.0
 0.0 1.0

8
 1.0 0.0
 0.0 1.0
 0.0 1.0
 0.0 0.0

12
 1.0 0.0
 0.0 1.0
 0.0 1.0
 0.0 0.0
 1.0 0.0
 0.0 1.0

8
 1.0 0.0
 0.0 1.0
 0.0 1.0
 0.0 0.0

8
 1.0 0.0
 0.0 1.0
 0.0 1.0
 0.0 0.0

8
 1.0 0.0
 0.0 1.0
 0.0 1.0
 0.0 0.0

8
 1.0 0.0
 0.0 1.0
 0.0 1.0
 0.0 0.0

8
 1.0 0.0
 0.0 1.0
 0.0 1.0
 0.0 0.0

8
 1.0 0.0
 0.0 1.0
 0.0 1.0
 0.0 0.0

8
 1.0 0.0
 0.0 1.0
 0.0 1.0
 0.0 0.0

8
 1.0 0.0
 0.0 1.0
 0.0 1.0
 0.0 0.0

8
 1.0 0.0
 0.0 1.0
 0.0 1.0
 0.0 0.0

8
 1.0 0.0
 0.0 1.0
 0.0 1.0
 0.0 0.0

8
 1.0 0.0
 0.0 1.0
 0.0 1.0
 0.0 0.0

8
 1.0 0.0
 0.0 1.0
 0.0 1.0
 0.0 0.0

8
 1.0 0.0
 0.0 1.0
 0.0 1.0
 0.0 0.0

8
 1.0 0.0
 0.0 1.0
 0.0 1.0
 0.0 0.0

8
 1.0 0.0
 0.0 1.0
 0.0 1.0
 0.0 0.0

8
 1.0 0.0
 0.0 1.0
 0.0 1.0
 0.0 0.0

8
 1.0 0.0
 0.0 1.0
 0.0 1.0
 0.0 0.0

8
 1.0 0.0
 0.0 1.0
 0.0 1.0
 0.0 0.0

8
 1.0 0.0
 0.0 1.0
 0.0 1.0
 0.0 0.0

8
 1.0 0.0
 0.0 1.0
 0.0 1.0
 0.0 0.0

8
 1.0 0.0
 0.0 1.0
 0.0 1.0
 0.0 0.0

8
 1.0 0.0
 0.0 1.0
 0.0 1.0
 0.0 0.0

8
 1.0 0.0
 0.0 1.0
 0.0 1.0
 0.0 0.0

8
 1.0 0.0
 0.0 1.0
 0.0 1.0
 0.0 0.0

8
 0.0 0.0
 0.0 1.0
 0.0 1.0
 0.0 0.0

16
 0.0 0.0
 0.0 1.0
 0.0 0.0
 0.0 0.0
 0.0 1.0
 0.0 1.0
 0.0 0.0
 0.0 0.0

16
 1.0 0.0
 0.0 1.0
 1.0 0.0
 1.0 0.0
 0.0 1.0
 0.0 1.0
 0.0 0.0
 0.0 0.0

16
 1.0 0.0
 0.0 1.0
 1.0 0.0
 1.0 0.0
 0.0 1.0
 0.0 1.0
 0.0 0.0
 0.0 0.0

16
 1.0 0.0
 0.0 1.0
 1.0 0.0
 1.0 0.0
 0.0 1.0
 0.0 1.0
 0.0 0.0
 0.0 0.0

16
 1.0 0.0
 0.0 1.0
 1.0 0.0
 1.0 0.0
 0.0 1.0
 0.0 1.0
 0.0 0.0
 0.0 0.0

16
 0.0 0.0
 0.0 1.0
 0.0 0.0
 0.0 0.0
 0.0 1.0
 0.0 1.0
 0.0 0.0
 0.0 0.0

16
 1.0 0.0
 0.0 1.0
 1.0 0.0
 1.0 0.0
 0.0 1.0
 0.0 1.0
 0.0 0.0
 0.0 0.0

16
 1.0 0.0
 0.0 1.0
 1.0 0.0
 1.0 0.0
 0.0 1.0
 0.0 1.0
 0.0 0.0
 0.0 0.0

16
 0.0 0.0
 0.0 1.0
 0.0 0.0
 0.0 0.0
 0.0 1.0
 0.0 1.0
 0.0 0.0
 0.0 0.0

16
 1.0 0.0
 0.0 1.0
 1.0 0.0
 1.0 0.0
 0.0 1.0
 0.0 1.0
 0.0 0.0
 0.0 0.0

16
 1.0 0.0
 0.0 1.0
 1.0 0.0
 1.0 0.0
 0.0 1.0
 0.0 1.0
 0.0 0.0
 0.0 0.0

16
 1.0 0.0
 0.0 1.0
 1.0 0.0
 1.0 0.0
 0.0 1.0
 0.0 1.0
 0.0 0.0
 0.0 0.0

16
 0.0 0.0
 0.0 1.0
 0.0 0.0
 0.0 0.0
 0.0 1.0
 0.0 1.0
 0.0 0.0
 0.0 0.0

16
 1.0 0.0
 0.0 1.0
 1.0 0.0
 1.0 0.0
 0.0 1.0
 0.0 1.0
 0.0 0.0
 0.0 0.0

16
 1.0 0.0
 0.0 1.0
 1.0 0.0
 1.0 0.0
 0.0 1.0
 0.0 1.0
 0.0 0.0
 0.0 0.0

16
 0.0 0.0
 0.0 1.0
 0.0 0.0
 0.0 0.0
 0.0 1.0
 0.0 1.0
 0.0 0.0
 0.0 0.0

